src/problems/cvrp/data/train_data/train_case_7.vrp
NAME : case_6
TYPE : CVRP
DIMENSION : 10
EDGE_WEIGHT_TYPE : EUC_2D
CAPACITY : 10
NODE_COORD_SECTION
1	681	294
2	511	898
3	210	569
4	901	875
5	764	43
6	429	478
7	831	755
8	950	346
9	653	877
10	518	915
DEMAND_SECTION
1	0
2	6
3	1
4	10
5	7
6	6
7	2
8	8
9	7
10	3
DEPOT_SECTION
1
-1
EOF
VEHICLE : 5
