src/problems/mkp/data/train_data/train_case_7.mkp
 5 10 
 100 220 90 400 300 
 8 24 13 80 70 
 8 44 13 100 100 
 3 6 4 20 20 
 5 9 6 40 30 
 5 11 7 50 40 
 5 11 7 55 40 
 0 0 1 10 4 
 3 4 5 20 14 
 3 6 9 30 29 
 3 8 9 35 29 
 200 220 80 80 100 210 110 205 260 275