src/problems/tsp/data/train_data/train_case_7.tsp
NAME: case_7
TYPE: TSP
DIMENSION: 9
EDGE_WEIGHT_TYPE: GEO
DISPLAY_DATA_TYPE: COORD_DISPLAY
NODE_COORD_SECTION
0001 -0.32 166.55
0002 49.30 0.08
0003 52.22 4.54
0004 -21.08 -175.12
0005 45.40 13.46
0006 39.43 -105.01
0007 -9.26 159.57
0008 50.05 14.26
0009 48.09 17.07
EOF
